SYSTEM = water

ENCUT  = 1000
ENAUG  = 1000
NBANDS = 280
NPAR = 4

NSW = 50000
IBRION = 0
ISIF   = 2
SMASS  = 0
POTIM  = 0.25
ISMEAR = -1

SIGMA = 0.2585199
TEBEG = 3000

GGA   = PE
LREAL = Auto
PREC  = High
IALGO = 48

LWAVE  = .FALSE.
LCHARG = .FALSE.

