Comment: Baldereschi Mean Value Point
1           Automatic generation of k-points
Reciprocal lattice   
0.2500 0.2500 0.2500   2
