H O
   1.0
     8.1332604119999985    0.0000000000000000    0.0000000000000000
     0.0000000000000000    8.1332604119999985    0.0000000000000000
     0.0000000000000000    0.0000000000000000    8.1332604119999985
 108   54
Direct
  0.0796366722278152  0.0820137288359024  0.0700640400773865
  0.4129700055611485  0.0820137288359024  0.0700640400773865
  0.7463033388944819  0.0820137288359024  0.0700640400773865
  0.0796366722278152  0.4153470621692357  0.0700640400773865
  0.4129700055611485  0.4153470621692357  0.0700640400773865
  0.7463033388944819  0.4153470621692357  0.0700640400773865
  0.0796366722278152  0.7486803955025692  0.0700640400773865
  0.4129700055611485  0.7486803955025692  0.0700640400773865
  0.7463033388944819  0.7486803955025692  0.0700640400773865
  0.0796366722278152  0.0820137288359024  0.4033973734107199
  0.4129700055611485  0.0820137288359024  0.4033973734107199
  0.7463033388944819  0.0820137288359024  0.4033973734107199
  0.0796366722278152  0.4153470621692357  0.4033973734107199
  0.4129700055611485  0.4153470621692357  0.4033973734107199
  0.7463033388944819  0.4153470621692357  0.4033973734107199
  0.0796366722278152  0.7486803955025692  0.4033973734107199
  0.4129700055611485  0.7486803955025692  0.4033973734107199
  0.7463033388944819  0.7486803955025692  0.4033973734107199
  0.0796366722278152  0.0820137288359024  0.7367307067440532
  0.4129700055611485  0.0820137288359024  0.7367307067440532
  0.7463033388944819  0.0820137288359024  0.7367307067440532
  0.0796366722278152  0.4153470621692357  0.7367307067440532
  0.4129700055611485  0.4153470621692357  0.7367307067440532
  0.7463033388944819  0.4153470621692357  0.7367307067440532
  0.0796366722278152  0.7486803955025692  0.7367307067440532
  0.4129700055611485  0.7486803955025692  0.7367307067440532
  0.7463033388944819  0.7486803955025692  0.7367307067440532
  0.2464479002767424  0.2724644497279122  0.0904646446621286
  0.5797812336100757  0.2724644497279122  0.0904646446621286
  0.9131145669434090  0.2724644497279122  0.0904646446621286
  0.2464479002767424  0.6057977830612455  0.0904646446621286
  0.5797812336100757  0.6057977830612455  0.0904646446621286
  0.9131145669434090  0.6057977830612455  0.0904646446621286
  0.2464479002767424  0.9391311163945789  0.0904646446621286
  0.5797812336100757  0.9391311163945789  0.0904646446621286
  0.9131145669434090  0.9391311163945789  0.0904646446621286
  0.2464479002767424  0.2724644497279122  0.4237979779954619
  0.5797812336100757  0.2724644497279122  0.4237979779954619
  0.9131145669434090  0.2724644497279122  0.4237979779954619
  0.2464479002767424  0.6057977830612455  0.4237979779954619
  0.5797812336100757  0.6057977830612455  0.4237979779954619
  0.9131145669434090  0.6057977830612455  0.4237979779954619
  0.2464479002767424  0.9391311163945789  0.4237979779954619
  0.5797812336100757  0.9391311163945789  0.4237979779954619
  0.9131145669434090  0.9391311163945789  0.4237979779954619
  0.2464479002767424  0.2724644497279122  0.7571313113287953
  0.5797812336100757  0.2724644497279122  0.7571313113287953
  0.9131145669434090  0.2724644497279122  0.7571313113287953
  0.2464479002767424  0.6057977830612455  0.7571313113287953
  0.5797812336100757  0.6057977830612455  0.7571313113287953
  0.9131145669434090  0.6057977830612455  0.7571313113287953
  0.2464479002767424  0.9391311163945789  0.7571313113287953
  0.5797812336100757  0.9391311163945789  0.7571313113287953
  0.9131145669434090  0.9391311163945789  0.7571313113287953
  0.2361874356002283  0.0787751421878944  0.2328592941994066
  0.5695207689335616  0.0787751421878944  0.2328592941994066
  0.9028541022668950  0.0787751421878944  0.2328592941994066
  0.2361874356002283  0.4121084755212277  0.2328592941994066
  0.5695207689335616  0.4121084755212277  0.2328592941994066
  0.9028541022668950  0.4121084755212277  0.2328592941994066
  0.2361874356002283  0.7454418088545610  0.2328592941994066
  0.5695207689335616  0.7454418088545610  0.2328592941994066
  0.9028541022668950  0.7454418088545610  0.2328592941994066
  0.2361874356002283  0.0787751421878944  0.5661926275327399
  0.5695207689335616  0.0787751421878944  0.5661926275327399
  0.9028541022668950  0.0787751421878944  0.5661926275327399
  0.2361874356002283  0.4121084755212277  0.5661926275327399
  0.5695207689335616  0.4121084755212277  0.5661926275327399
  0.9028541022668950  0.4121084755212277  0.5661926275327399
  0.2361874356002283  0.7454418088545610  0.5661926275327399
  0.5695207689335616  0.7454418088545610  0.5661926275327399
  0.9028541022668950  0.7454418088545610  0.5661926275327399
  0.2361874356002283  0.0787751421878944  0.8995259608660732
  0.5695207689335616  0.0787751421878944  0.8995259608660732
  0.9028541022668950  0.0787751421878944  0.8995259608660732
  0.2361874356002283  0.4121084755212277  0.8995259608660732
  0.5695207689335616  0.4121084755212277  0.8995259608660732
  0.9028541022668950  0.4121084755212277  0.8995259608660732
  0.2361874356002283  0.7454418088545610  0.8995259608660732
  0.5695207689335616  0.7454418088545610  0.8995259608660732
  0.9028541022668950  0.7454418088545610  0.8995259608660732
  0.0943463501419869  0.2544047625705132  0.2509020782643160
  0.4276796834753202  0.2544047625705132  0.2509020782643160
  0.7610130168086536  0.2544047625705132  0.2509020782643160
  0.0943463501419869  0.5877380959038465  0.2509020782643160
  0.4276796834753202  0.5877380959038465  0.2509020782643160
  0.7610130168086536  0.5877380959038465  0.2509020782643160
  0.0943463501419869  0.9210714292371799  0.2509020782643160
  0.4276796834753202  0.9210714292371799  0.2509020782643160
  0.7610130168086536  0.9210714292371799  0.2509020782643160
  0.0943463501419869  0.2544047625705132  0.5842354115976494
  0.4276796834753202  0.2544047625705132  0.5842354115976494
  0.7610130168086536  0.2544047625705132  0.5842354115976494
  0.0943463501419869  0.5877380959038465  0.5842354115976494
  0.4276796834753202  0.5877380959038465  0.5842354115976494
  0.7610130168086536  0.5877380959038465  0.5842354115976494
  0.0943463501419869  0.9210714292371799  0.5842354115976494
  0.4276796834753202  0.9210714292371799  0.5842354115976494
  0.7610130168086536  0.9210714292371799  0.5842354115976494
  0.0943463501419869  0.2544047625705132  0.9175687449309827
  0.4276796834753202  0.2544047625705132  0.9175687449309827
  0.7610130168086536  0.2544047625705132  0.9175687449309827
  0.0943463501419869  0.5877380959038465  0.9175687449309827
  0.4276796834753202  0.5877380959038465  0.9175687449309827
  0.7610130168086536  0.5877380959038465  0.9175687449309827
  0.0943463501419869  0.9210714292371799  0.9175687449309827
  0.4276796834753202  0.9210714292371799  0.9175687449309827
  0.7610130168086536  0.9210714292371799  0.9175687449309827
  0.3257243944404825  0.0058252973021179  0.0051015101753127
  0.6590577277738158  0.0058252973021179  0.0051015101753127
  0.9923910611071491  0.0058252973021179  0.0051015101753127
  0.3257243944404825  0.3391586306354513  0.0051015101753127
  0.6590577277738158  0.3391586306354513  0.0051015101753127
  0.9923910611071491  0.3391586306354513  0.0051015101753127
  0.3257243944404825  0.6724919639687846  0.0051015101753127
  0.6590577277738158  0.6724919639687846  0.0051015101753127
  0.9923910611071491  0.6724919639687846  0.0051015101753127
  0.3257243944404825  0.0058252973021179  0.3384348435086460
  0.6590577277738158  0.0058252973021179  0.3384348435086460
  0.9923910611071491  0.0058252973021179  0.3384348435086460
  0.3257243944404825  0.3391586306354513  0.3384348435086460
  0.6590577277738158  0.3391586306354513  0.3384348435086460
  0.9923910611071491  0.3391586306354513  0.3384348435086460
  0.3257243944404825  0.6724919639687846  0.3384348435086460
  0.6590577277738158  0.6724919639687846  0.3384348435086460
  0.9923910611071491  0.6724919639687846  0.3384348435086460
  0.3257243944404825  0.0058252973021179  0.6717681768419794
  0.6590577277738158  0.0058252973021179  0.6717681768419794
  0.9923910611071491  0.0058252973021179  0.6717681768419794
  0.3257243944404825  0.3391586306354513  0.6717681768419794
  0.6590577277738158  0.3391586306354513  0.6717681768419794
  0.9923910611071491  0.3391586306354513  0.6717681768419794
  0.3257243944404825  0.6724919639687846  0.6717681768419794
  0.6590577277738158  0.6724919639687846  0.6717681768419794
  0.9923910611071491  0.6724919639687846  0.6717681768419794
  0.1696952998357628  0.1699460635319097  0.1473386918744843
  0.5030286331690962  0.1699460635319097  0.1473386918744843
  0.8363619665024294  0.1699460635319097  0.1473386918744843
  0.1696952998357628  0.5032793968652430  0.1473386918744843
  0.5030286331690962  0.5032793968652430  0.1473386918744843
  0.8363619665024294  0.5032793968652430  0.1473386918744843
  0.1696952998357628  0.8366127301985764  0.1473386918744843
  0.5030286331690962  0.8366127301985764  0.1473386918744843
  0.8363619665024294  0.8366127301985764  0.1473386918744843
  0.1696952998357628  0.1699460635319097  0.4806720252078176
  0.5030286331690962  0.1699460635319097  0.4806720252078176
  0.8363619665024294  0.1699460635319097  0.4806720252078176
  0.1696952998357628  0.5032793968652430  0.4806720252078176
  0.5030286331690962  0.5032793968652430  0.4806720252078176
  0.8363619665024294  0.5032793968652430  0.4806720252078176
  0.1696952998357628  0.8366127301985764  0.4806720252078176
  0.5030286331690962  0.8366127301985764  0.4806720252078176
  0.8363619665024294  0.8366127301985764  0.4806720252078176
  0.1696952998357628  0.1699460635319097  0.8140053585411510
  0.5030286331690962  0.1699460635319097  0.8140053585411510
  0.8363619665024294  0.1699460635319097  0.8140053585411510
  0.1696952998357628  0.5032793968652430  0.8140053585411510
  0.5030286331690962  0.5032793968652430  0.8140053585411510
  0.8363619665024294  0.5032793968652430  0.8140053585411510
  0.1696952998357628  0.8366127301985764  0.8140053585411510
  0.5030286331690962  0.8366127301985764  0.8140053585411510
  0.8363619665024294  0.8366127301985764  0.8140053585411510
